p cnf 200 1110
-101 36 0
-101 -95 0
-101 -82 0
-101 -26 0
-101 57 0
-101 75 0
-101 1 0
-101 68 0
-101 63 0
-101 -60 0
101 -36 95 82 26 -57 -75 -1 -68 -63 60 0
-102 87 0
-102 99 0
-102 -27 0
-102 -3 0
-102 81 0
-102 11 0
-102 58 0
-102 -72 0
-102 -54 0
-102 -48 0
102 -87 -99 27 3 -81 -11 -58 72 54 48 0
-103 -68 0
-103 50 0
-103 3 0
-103 17 0
-103 43 0
-103 -13 0
-103 -21 0
-103 -32 0
-103 1 0
-103 -58 0
103 68 -50 -3 -17 -43 13 21 32 -1 58 0
-104 -58 0
-104 -79 0
-104 97 0
-104 14 0
-104 48 0
-104 -51 0
-104 -98 0
-104 3 0
-104 -91 0
-104 -4 0
104 58 79 -97 -14 -48 51 98 -3 91 4 0
-105 21 0
-105 -92 0
-105 75 0
-105 -27 0
-105 -7 0
-105 37 0
-105 -23 0
-105 6 0
-105 -73 0
-105 -8 0
105 -21 92 -75 27 7 -37 23 -6 73 8 0
-106 -27 0
-106 -63 0
-106 1 0
-106 33 0
-106 -58 0
-106 -93 0
-106 35 0
-106 -54 0
-106 80 0
-106 -9 0
106 27 63 -1 -33 58 93 -35 54 -80 9 0
-107 81 0
-107 3 0
-107 -37 0
-107 69 0
-107 49 0
-107 11 0
-107 7 0
-107 -92 0
-107 47 0
-107 -32 0
107 -81 -3 37 -69 -49 -11 -7 92 -47 32 0
-108 -36 0
-108 27 0
-108 -84 0
-108 -14 0
-108 41 0
-108 49 0
-108 -52 0
-108 -72 0
-108 91 0
-108 -76 0
108 36 -27 84 14 -41 -49 52 72 -91 76 0
-109 19 0
-109 -89 0
-109 -53 0
-109 -81 0
-109 -11 0
-109 96 0
-109 -36 0
-109 -88 0
-109 32 0
-109 61 0
109 -19 89 53 81 11 -96 36 88 -32 -61 0
-110 29 0
-110 -61 0
-110 62 0
-110 57 0
-110 90 0
-110 71 0
-110 18 0
-110 -24 0
-110 21 0
-110 84 0
110 -29 61 -62 -57 -90 -71 -18 24 -21 -84 0
101 102 103 104 105 106 107 108 109 110 0
-111 52 0
-111 -87 0
-111 78 0
-111 -79 0
-111 26 0
-111 -2 0
-111 13 0
-111 -12 0
-111 -19 0
-111 -7 0
111 -52 87 -78 79 -26 2 -13 12 19 7 0
-112 51 0
-112 49 0
-112 -74 0
-112 35 0
-112 30 0
-112 -36 0
-112 -23 0
-112 -44 0
-112 -79 0
-112 -55 0
112 -51 -49 74 -35 -30 36 23 44 79 55 0
-113 -73 0
-113 46 0
-113 60 0
-113 -52 0
-113 -78 0
-113 54 0
-113 -53 0
-113 37 0
-113 27 0
-113 74 0
113 73 -46 -60 52 78 -54 53 -37 -27 -74 0
-114 -2 0
-114 -96 0
-114 -55 0
-114 26 0
-114 30 0
-114 44 0
-114 -68 0
-114 24 0
-114 33 0
-114 -62 0
114 2 96 55 -26 -30 -44 68 -24 -33 62 0
-115 13 0
-115 -97 0
-115 51 0
-115 21 0
-115 100 0
-115 93 0
-115 23 0
-115 65 0
-115 -17 0
-115 -58 0
115 -13 97 -51 -21 -100 -93 -23 -65 17 58 0
-116 -44 0
-116 3 0
-116 85 0
-116 -33 0
-116 -67 0
-116 -95 0
-116 -32 0
-116 -54 0
-116 42 0
-116 100 0
116 44 -3 -85 33 67 95 32 54 -42 -100 0
-117 -58 0
-117 20 0
-117 -33 0
-117 -55 0
-117 93 0
-117 -75 0
-117 73 0
-117 12 0
-117 81 0
-117 39 0
117 58 -20 33 55 -93 75 -73 -12 -81 -39 0
-118 -79 0
-118 -67 0
-118 54 0
-118 -91 0
-118 -1 0
-118 59 0
-118 58 0
-118 83 0
-118 -85 0
-118 70 0
118 79 67 -54 91 1 -59 -58 -83 85 -70 0
-119 -95 0
-119 81 0
-119 24 0
-119 19 0
-119 -45 0
-119 28 0
-119 100 0
-119 -62 0
-119 85 0
-119 -84 0
119 95 -81 -24 -19 45 -28 -100 62 -85 84 0
-120 73 0
-120 62 0
-120 74 0
-120 15 0
-120 59 0
-120 38 0
-120 -88 0
-120 -60 0
-120 -33 0
-120 79 0
120 -73 -62 -74 -15 -59 -38 88 60 33 -79 0
111 112 113 114 115 116 117 118 119 120 0
-121 -64 0
-121 41 0
-121 -68 0
-121 -15 0
-121 26 0
-121 55 0
-121 -65 0
-121 -97 0
-121 75 0
-121 -29 0
121 64 -41 68 15 -26 -55 65 97 -75 29 0
-122 -41 0
-122 -58 0
-122 -50 0
-122 -1 0
-122 44 0
-122 89 0
-122 54 0
-122 -27 0
-122 64 0
-122 96 0
122 41 58 50 1 -44 -89 -54 27 -64 -96 0
-123 -57 0
-123 74 0
-123 -75 0
-123 -80 0
-123 -21 0
-123 -38 0
-123 26 0
-123 -56 0
-123 -11 0
-123 7 0
123 57 -74 75 80 21 38 -26 56 11 -7 0
-124 -59 0
-124 -62 0
-124 -27 0
-124 76 0
-124 -55 0
-124 -47 0
-124 96 0
-124 89 0
-124 -45 0
-124 -75 0
124 59 62 27 -76 55 47 -96 -89 45 75 0
-125 -22 0
-125 -59 0
-125 -57 0
-125 -46 0
-125 62 0
-125 75 0
-125 -12 0
-125 -100 0
-125 71 0
-125 79 0
125 22 59 57 46 -62 -75 12 100 -71 -79 0
-126 66 0
-126 10 0
-126 -12 0
-126 -59 0
-126 -91 0
-126 -94 0
-126 79 0
-126 84 0
-126 53 0
-126 -38 0
126 -66 -10 12 59 91 94 -79 -84 -53 38 0
-127 -51 0
-127 -60 0
-127 -33 0
-127 -52 0
-127 2 0
-127 56 0
-127 -73 0
-127 -47 0
-127 -19 0
-127 -44 0
127 51 60 33 52 -2 -56 73 47 19 44 0
-128 -82 0
-128 100 0
-128 97 0
-128 18 0
-128 -63 0
-128 1 0
-128 -74 0
-128 -35 0
-128 -23 0
-128 78 0
128 82 -100 -97 -18 63 -1 74 35 23 -78 0
-129 -48 0
-129 -75 0
-129 43 0
-129 18 0
-129 -27 0
-129 41 0
-129 -65 0
-129 2 0
-129 32 0
-129 76 0
129 48 75 -43 -18 27 -41 65 -2 -32 -76 0
-130 -26 0
-130 -54 0
-130 -7 0
-130 -22 0
-130 -97 0
-130 -77 0
-130 61 0
-130 16 0
-130 -12 0
-130 -21 0
130 26 54 7 22 97 77 -61 -16 12 21 0
121 122 123 124 125 126 127 128 129 130 0
-131 -19 0
-131 -86 0
-131 40 0
-131 -98 0
-131 51 0
-131 -82 0
-131 -81 0
-131 -28 0
-131 60 0
-131 -96 0
131 19 86 -40 98 -51 82 81 28 -60 96 0
-132 -45 0
-132 -5 0
-132 75 0
-132 22 0
-132 -37 0
-132 -63 0
-132 -88 0
-132 -71 0
-132 -98 0
-132 67 0
132 45 5 -75 -22 37 63 88 71 98 -67 0
-133 23 0
-133 11 0
-133 -38 0
-133 25 0
-133 70 0
-133 -95 0
-133 76 0
-133 -9 0
-133 -56 0
-133 12 0
133 -23 -11 38 -25 -70 95 -76 9 56 -12 0
-134 95 0
-134 -4 0
-134 46 0
-134 53 0
-134 78 0
-134 -40 0
-134 -1 0
-134 -44 0
-134 -50 0
-134 -39 0
134 -95 4 -46 -53 -78 40 1 44 50 39 0
-135 -34 0
-135 -97 0
-135 -37 0
-135 -53 0
-135 -5 0
-135 10 0
-135 -17 0
-135 -68 0
-135 94 0
-135 -79 0
135 34 97 37 53 5 -10 17 68 -94 79 0
-136 3 0
-136 47 0
-136 22 0
-136 -23 0
-136 -48 0
-136 -63 0
-136 62 0
-136 -97 0
-136 -79 0
-136 27 0
136 -3 -47 -22 23 48 63 -62 97 79 -27 0
-137 81 0
-137 -91 0
-137 12 0
-137 93 0
-137 46 0
-137 -77 0
-137 -94 0
-137 38 0
-137 -32 0
-137 -19 0
137 -81 91 -12 -93 -46 77 94 -38 32 19 0
-138 -1 0
-138 57 0
-138 -16 0
-138 62 0
-138 -84 0
-138 -40 0
-138 -74 0
-138 47 0
-138 99 0
-138 85 0
138 1 -57 16 -62 84 40 74 -47 -99 -85 0
-139 -76 0
-139 -28 0
-139 98 0
-139 86 0
-139 84 0
-139 16 0
-139 88 0
-139 -65 0
-139 94 0
-139 -71 0
139 76 28 -98 -86 -84 -16 -88 65 -94 71 0
-140 4 0
-140 -52 0
-140 27 0
-140 -66 0
-140 71 0
-140 17 0
-140 86 0
-140 -79 0
-140 -95 0
-140 39 0
140 -4 52 -27 66 -71 -17 -86 79 95 -39 0
131 132 133 134 135 136 137 138 139 140 0
-141 12 0
-141 65 0
-141 -48 0
-141 32 0
-141 25 0
-141 98 0
-141 -95 0
-141 49 0
-141 47 0
-141 -81 0
141 -12 -65 48 -32 -25 -98 95 -49 -47 81 0
-142 -93 0
-142 -18 0
-142 -96 0
-142 46 0
-142 100 0
-142 20 0
-142 66 0
-142 -73 0
-142 54 0
-142 88 0
142 93 18 96 -46 -100 -20 -66 73 -54 -88 0
-143 -91 0
-143 -61 0
-143 5 0
-143 -69 0
-143 44 0
-143 22 0
-143 86 0
-143 -13 0
-143 37 0
-143 73 0
143 91 61 -5 69 -44 -22 -86 13 -37 -73 0
-144 -54 0
-144 74 0
-144 -30 0
-144 23 0
-144 75 0
-144 -95 0
-144 88 0
-144 82 0
-144 -31 0
-144 92 0
144 54 -74 30 -23 -75 95 -88 -82 31 -92 0
-145 -72 0
-145 -98 0
-145 39 0
-145 24 0
-145 -11 0
-145 -88 0
-145 41 0
-145 94 0
-145 -12 0
-145 -82 0
145 72 98 -39 -24 11 88 -41 -94 12 82 0
-146 86 0
-146 -15 0
-146 97 0
-146 -73 0
-146 89 0
-146 -9 0
-146 -1 0
-146 37 0
-146 85 0
-146 75 0
146 -86 15 -97 73 -89 9 1 -37 -85 -75 0
-147 -26 0
-147 68 0
-147 78 0
-147 82 0
-147 80 0
-147 -55 0
-147 84 0
-147 53 0
-147 -52 0
-147 58 0
147 26 -68 -78 -82 -80 55 -84 -53 52 -58 0
-148 18 0
-148 57 0
-148 37 0
-148 84 0
-148 -20 0
-148 -85 0
-148 30 0
-148 -44 0
-148 -65 0
-148 82 0
148 -18 -57 -37 -84 20 85 -30 44 65 -82 0
-149 14 0
-149 1 0
-149 21 0
-149 -88 0
-149 -70 0
-149 78 0
-149 39 0
-149 -23 0
-149 50 0
-149 82 0
149 -14 -1 -21 88 70 -78 -39 23 -50 -82 0
-150 -91 0
-150 67 0
-150 64 0
-150 8 0
-150 65 0
-150 -96 0
-150 74 0
-150 32 0
-150 -12 0
-150 -50 0
150 91 -67 -64 -8 -65 96 -74 -32 12 50 0
141 142 143 144 145 146 147 148 149 150 0
-151 -48 0
-151 68 0
-151 -45 0
-151 21 0
-151 -72 0
-151 -59 0
-151 -18 0
-151 -7 0
-151 12 0
-151 15 0
151 48 -68 45 -21 72 59 18 7 -12 -15 0
-152 75 0
-152 86 0
-152 -28 0
-152 60 0
-152 -51 0
-152 61 0
-152 -92 0
-152 -20 0
-152 -87 0
-152 62 0
152 -75 -86 28 -60 51 -61 92 20 87 -62 0
-153 -89 0
-153 -77 0
-153 1 0
-153 42 0
-153 -85 0
-153 5 0
-153 73 0
-153 -75 0
-153 9 0
-153 12 0
153 89 77 -1 -42 85 -5 -73 75 -9 -12 0
-154 83 0
-154 97 0
-154 70 0
-154 49 0
-154 -59 0
-154 -71 0
-154 80 0
-154 -79 0
-154 18 0
-154 -91 0
154 -83 -97 -70 -49 59 71 -80 79 -18 91 0
-155 -28 0
-155 -6 0
-155 71 0
-155 91 0
-155 83 0
-155 15 0
-155 -63 0
-155 60 0
-155 72 0
-155 -79 0
155 28 6 -71 -91 -83 -15 63 -60 -72 79 0
-156 -100 0
-156 -82 0
-156 90 0
-156 83 0
-156 -10 0
-156 13 0
-156 -22 0
-156 5 0
-156 -84 0
-156 -9 0
156 100 82 -90 -83 10 -13 22 -5 84 9 0
-157 53 0
-157 -29 0
-157 -60 0
-157 -83 0
-157 -67 0
-157 52 0
-157 -82 0
-157 58 0
-157 81 0
-157 49 0
157 -53 29 60 83 67 -52 82 -58 -81 -49 0
-158 72 0
-158 -9 0
-158 -3 0
-158 -62 0
-158 -89 0
-158 51 0
-158 -82 0
-158 55 0
-158 -33 0
-158 53 0
158 -72 9 3 62 89 -51 82 -55 33 -53 0
-159 -99 0
-159 -14 0
-159 -42 0
-159 -26 0
-159 62 0
-159 -83 0
-159 89 0
-159 -3 0
-159 84 0
-159 94 0
159 99 14 42 26 -62 83 -89 3 -84 -94 0
-160 -29 0
-160 11 0
-160 36 0
-160 -7 0
-160 3 0
-160 -72 0
-160 -13 0
-160 28 0
-160 -12 0
-160 31 0
160 29 -11 -36 7 -3 72 13 -28 12 -31 0
151 152 153 154 155 156 157 158 159 160 0
-161 94 0
-161 -33 0
-161 -3 0
-161 -34 0
-161 19 0
-161 53 0
-161 -4 0
-161 -2 0
-161 62 0
-161 9 0
161 -94 33 3 34 -19 -53 4 2 -62 -9 0
-162 -3 0
-162 -59 0
-162 -10 0
-162 9 0
-162 -5 0
-162 7 0
-162 94 0
-162 -46 0
-162 -60 0
-162 28 0
162 3 59 10 -9 5 -7 -94 46 60 -28 0
-163 -56 0
-163 17 0
-163 98 0
-163 -43 0
-163 -30 0
-163 55 0
-163 95 0
-163 -67 0
-163 -58 0
-163 -97 0
163 56 -17 -98 43 30 -55 -95 67 58 97 0
-164 18 0
-164 30 0
-164 -37 0
-164 -21 0
-164 -100 0
-164 7 0
-164 51 0
-164 62 0
-164 -23 0
-164 42 0
164 -18 -30 37 21 100 -7 -51 -62 23 -42 0
-165 41 0
-165 84 0
-165 47 0
-165 -23 0
-165 63 0
-165 -89 0
-165 24 0
-165 22 0
-165 6 0
-165 29 0
165 -41 -84 -47 23 -63 89 -24 -22 -6 -29 0
-166 58 0
-166 -84 0
-166 -66 0
-166 -6 0
-166 -11 0
-166 64 0
-166 56 0
-166 -12 0
-166 96 0
-166 -90 0
166 -58 84 66 6 11 -64 -56 12 -96 90 0
-167 -1 0
-167 -26 0
-167 80 0
-167 -7 0
-167 -29 0
-167 -42 0
-167 -6 0
-167 54 0
-167 -96 0
-167 68 0
167 1 26 -80 7 29 42 6 -54 96 -68 0
-168 -35 0
-168 -45 0
-168 -60 0
-168 63 0
-168 85 0
-168 25 0
-168 92 0
-168 -62 0
-168 -1 0
-168 -81 0
168 35 45 60 -63 -85 -25 -92 62 1 81 0
-169 50 0
-169 -32 0
-169 10 0
-169 -31 0
-169 37 0
-169 69 0
-169 90 0
-169 -28 0
-169 43 0
-169 78 0
169 -50 32 -10 31 -37 -69 -90 28 -43 -78 0
-170 47 0
-170 -88 0
-170 44 0
-170 -23 0
-170 -27 0
-170 -63 0
-170 81 0
-170 -40 0
-170 -67 0
-170 -57 0
170 -47 88 -44 23 27 63 -81 40 67 57 0
161 162 163 164 165 166 167 168 169 170 0
-171 -72 0
-171 54 0
-171 88 0
-171 71 0
-171 -65 0
-171 -77 0
-171 -25 0
-171 79 0
-171 -11 0
-171 -57 0
171 72 -54 -88 -71 65 77 25 -79 11 57 0
-172 3 0
-172 93 0
-172 -69 0
-172 90 0
-172 36 0
-172 -11 0
-172 86 0
-172 13 0
-172 -84 0
-172 -56 0
172 -3 -93 69 -90 -36 11 -86 -13 84 56 0
-173 -12 0
-173 55 0
-173 67 0
-173 76 0
-173 42 0
-173 -62 0
-173 36 0
-173 -27 0
-173 -85 0
-173 14 0
173 12 -55 -67 -76 -42 62 -36 27 85 -14 0
-174 27 0
-174 -78 0
-174 38 0
-174 -61 0
-174 -48 0
-174 -15 0
-174 -14 0
-174 -19 0
-174 93 0
-174 60 0
174 -27 78 -38 61 48 15 14 19 -93 -60 0
-175 -8 0
-175 -18 0
-175 -98 0
-175 60 0
-175 14 0
-175 91 0
-175 76 0
-175 -9 0
-175 92 0
-175 -22 0
175 8 18 98 -60 -14 -91 -76 9 -92 22 0
-176 73 0
-176 20 0
-176 3 0
-176 21 0
-176 -38 0
-176 75 0
-176 43 0
-176 -54 0
-176 69 0
-176 98 0
176 -73 -20 -3 -21 38 -75 -43 54 -69 -98 0
-177 -17 0
-177 19 0
-177 -54 0
-177 -100 0
-177 52 0
-177 1 0
-177 -70 0
-177 -46 0
-177 -71 0
-177 -10 0
177 17 -19 54 100 -52 -1 70 46 71 10 0
-178 -46 0
-178 1 0
-178 65 0
-178 -100 0
-178 36 0
-178 39 0
-178 -4 0
-178 29 0
-178 18 0
-178 21 0
178 46 -1 -65 100 -36 -39 4 -29 -18 -21 0
-179 38 0
-179 -21 0
-179 28 0
-179 -27 0
-179 -58 0
-179 41 0
-179 -22 0
-179 65 0
-179 -52 0
-179 -26 0
179 -38 21 -28 27 58 -41 22 -65 52 26 0
-180 -48 0
-180 23 0
-180 28 0
-180 62 0
-180 71 0
-180 -34 0
-180 14 0
-180 -94 0
-180 22 0
-180 81 0
180 48 -23 -28 -62 -71 34 -14 94 -22 -81 0
171 172 173 174 175 176 177 178 179 180 0
-181 8 0
-181 88 0
-181 63 0
-181 -75 0
-181 -44 0
-181 55 0
-181 -9 0
-181 7 0
-181 -18 0
-181 23 0
181 -8 -88 -63 75 44 -55 9 -7 18 -23 0
-182 -53 0
-182 80 0
-182 -34 0
-182 89 0
-182 78 0
-182 27 0
-182 12 0
-182 3 0
-182 -63 0
-182 -1 0
182 53 -80 34 -89 -78 -27 -12 -3 63 1 0
-183 77 0
-183 58 0
-183 -82 0
-183 23 0
-183 78 0
-183 -38 0
-183 80 0
-183 53 0
-183 70 0
-183 -49 0
183 -77 -58 82 -23 -78 38 -80 -53 -70 49 0
-184 94 0
-184 34 0
-184 -76 0
-184 -16 0
-184 75 0
-184 19 0
-184 -30 0
-184 4 0
-184 -87 0
-184 11 0
184 -94 -34 76 16 -75 -19 30 -4 87 -11 0
-185 18 0
-185 9 0
-185 -81 0
-185 -51 0
-185 61 0
-185 -2 0
-185 -29 0
-185 7 0
-185 38 0
-185 83 0
185 -18 -9 81 51 -61 2 29 -7 -38 -83 0
-186 -46 0
-186 3 0
-186 -15 0
-186 81 0
-186 25 0
-186 -34 0
-186 72 0
-186 65 0
-186 63 0
-186 42 0
186 46 -3 15 -81 -25 34 -72 -65 -63 -42 0
-187 89 0
-187 -48 0
-187 -22 0
-187 -10 0
-187 36 0
-187 28 0
-187 9 0
-187 30 0
-187 68 0
-187 97 0
187 -89 48 22 10 -36 -28 -9 -30 -68 -97 0
-188 75 0
-188 -94 0
-188 -23 0
-188 -45 0
-188 -63 0
-188 -66 0
-188 64 0
-188 100 0
-188 14 0
-188 -58 0
188 -75 94 23 45 63 66 -64 -100 -14 58 0
-189 13 0
-189 -76 0
-189 87 0
-189 -60 0
-189 1 0
-189 -97 0
-189 17 0
-189 -53 0
-189 -22 0
-189 -21 0
189 -13 76 -87 60 -1 97 -17 53 22 21 0
-190 -84 0
-190 51 0
-190 72 0
-190 -73 0
-190 -88 0
-190 13 0
-190 44 0
-190 34 0
-190 68 0
-190 -80 0
190 84 -51 -72 73 88 -13 -44 -34 -68 80 0
181 182 183 184 185 186 187 188 189 190 0
-191 -54 0
-191 18 0
-191 -93 0
-191 28 0
-191 -3 0
-191 -38 0
-191 32 0
-191 -79 0
-191 -75 0
-191 94 0
191 54 -18 93 -28 3 38 -32 79 75 -94 0
-192 42 0
-192 49 0
-192 21 0
-192 58 0
-192 29 0
-192 -22 0
-192 46 0
-192 54 0
-192 67 0
-192 74 0
192 -42 -49 -21 -58 -29 22 -46 -54 -67 -74 0
-193 38 0
-193 54 0
-193 77 0
-193 76 0
-193 6 0
-193 100 0
-193 85 0
-193 -83 0
-193 39 0
-193 -99 0
193 -38 -54 -77 -76 -6 -100 -85 83 -39 99 0
-194 -59 0
-194 16 0
-194 18 0
-194 -3 0
-194 -95 0
-194 -100 0
-194 66 0
-194 98 0
-194 61 0
-194 -20 0
194 59 -16 -18 3 95 100 -66 -98 -61 20 0
-195 37 0
-195 -80 0
-195 3 0
-195 -71 0
-195 34 0
-195 8 0
-195 -90 0
-195 14 0
-195 32 0
-195 -92 0
195 -37 80 -3 71 -34 -8 90 -14 -32 92 0
-196 16 0
-196 12 0
-196 -17 0
-196 -24 0
-196 -79 0
-196 29 0
-196 83 0
-196 -67 0
-196 -52 0
-196 -31 0
196 -16 -12 17 24 79 -29 -83 67 52 31 0
-197 -49 0
-197 52 0
-197 69 0
-197 -11 0
-197 -42 0
-197 -86 0
-197 83 0
-197 100 0
-197 53 0
-197 39 0
197 49 -52 -69 11 42 86 -83 -100 -53 -39 0
-198 48 0
-198 -32 0
-198 43 0
-198 -72 0
-198 13 0
-198 -41 0
-198 -44 0
-198 23 0
-198 -16 0
-198 65 0
198 -48 32 -43 72 -13 41 44 -23 16 -65 0
-199 -78 0
-199 -95 0
-199 -83 0
-199 13 0
-199 -32 0
-199 16 0
-199 43 0
-199 77 0
-199 -11 0
-199 28 0
199 78 95 83 -13 32 -16 -43 -77 11 -28 0
-200 -26 0
-200 78 0
-200 -71 0
-200 33 0
-200 -88 0
-200 10 0
-200 15 0
-200 45 0
-200 13 0
-200 -55 0
200 26 -78 71 -33 88 -10 -15 -45 -13 55 0
191 192 193 194 195 196 197 198 199 200 0
